50
17017

483 137
559 492
461 903
294 994
583 719
294 729
835 191
254 294
784 572
628 188
180 59
280 95
567 633
248 267
799 244
78 584
525 180
458 503
333 463
591 788
600 143
110 554
704 748
483 270
385 664
860 977
6 72
336 429
941 395
770 167
193 648
796 455
152 595
429 75
151 78
110 187
712 503
165 633
71 370
669 628
267 232
862 78
681 677
912 62
306 884
163 146
646 977
426 297
653 904
606 871
